NAME: line_50_4
TYPE: TSP
COMMENT: line_50_4
DIMENSION: 50
EDGE_WEIGHT_TYPE: EUC_2D
NODE_COORD_SECTION
1 0.0 368.0
2 0.0 397.0
3 0.0 62.0
4 0.0 497.0
5 0.0 139.0
6 0.0 461.0
7 0.0 301.0
8 0.0 253.0
9 0.0 469.0
10 0.0 194.0
11 0.0 49.0
12 0.0 488.0
13 0.0 486.0
14 0.0 359.0
15 0.0 245.0
16 0.0 381.0
17 0.0 100.0
18 0.0 136.0
19 0.0 449.0
20 0.0 495.0
21 0.0 310.0
22 0.0 374.0
23 0.0 198.0
24 0.0 150.0
25 0.0 59.0
26 0.0 234.0
27 0.0 423.0
28 0.0 469.0
29 0.0 408.0
30 0.0 462.0
31 0.0 218.0
32 0.0 184.0
33 0.0 94.0
34 0.0 19.0
35 0.0 140.0
36 0.0 12.0
37 0.0 406.0
38 0.0 438.0
39 0.0 454.0
40 0.0 468.0
41 0.0 218.0
42 0.0 381.0
43 0.0 192.0
44 0.0 36.0
45 0.0 294.0
46 0.0 179.0
47 0.0 469.0
48 0.0 0.0
49 0.0 406.0
50 0.0 243.0
